(declare-fun b199 () (_ FloatingPoint 11 53))
(declare-fun b283 () (_ FloatingPoint 11 53))
(declare-fun b606 () (_ FloatingPoint 8 24))
(declare-fun b216 () (_ FloatingPoint 11 53))
(declare-fun b616 () (_ FloatingPoint 8 24))
(declare-fun b621 () (_ FloatingPoint 8 24))
(declare-fun b601 () (_ FloatingPoint 8 24))
(declare-fun b182 () (_ FloatingPoint 11 53))
(declare-fun b567 () (_ FloatingPoint 8 24))
(declare-fun b250 () (_ FloatingPoint 11 53))
(declare-fun b582 () (_ FloatingPoint 8 24))
(declare-fun b641 () (_ FloatingPoint 8 24))
(declare-fun b557 () (_ FloatingPoint 8 24))
(declare-fun b562 () (_ FloatingPoint 8 24))
(declare-fun b596 () (_ FloatingPoint 8 24))
(declare-fun b547 () (_ FloatingPoint 8 24))
(declare-fun b149 () (_ FloatingPoint 11 53))
(declare-fun b626 () (_ FloatingPoint 8 24))
(declare-fun b552 () (_ FloatingPoint 8 24))
(declare-fun b577 () (_ FloatingPoint 8 24))
(declare-fun b267 () (_ FloatingPoint 11 53))
(declare-fun b233 () (_ FloatingPoint 11 53))
(declare-fun b587 () (_ FloatingPoint 8 24))
(declare-fun b376 () (_ FloatingPoint 8 24))
(declare-fun b140 () (_ FloatingPoint 11 53))
(declare-fun b540 () (_ FloatingPoint 8 24))
(declare-fun b117 () (_ FloatingPoint 8 24))
(declare-fun b631 () (_ FloatingPoint 8 24))
(declare-fun b110 () (_ FloatingPoint 8 24))
(declare-fun b572 () (_ FloatingPoint 8 24))
(declare-fun b108 () (_ FloatingPoint 8 24))
(declare-fun b545 () (_ FloatingPoint 8 24))
(declare-fun b127 () (_ FloatingPoint 11 53))
(declare-fun b373 () (_ FloatingPoint 8 24))
(declare-fun b165 () (_ FloatingPoint 11 53))
(declare-fun b636 () (_ FloatingPoint 8 24))
(declare-fun b611 () (_ FloatingPoint 8 24))
(assert (let ((.def_294 ((_ to_fp 11 53) RNE b596)))
(let ((.def_295 (fp.leq b140 .def_294)))
(let ((.def_296 (not .def_295)))
(let ((.def_10 (fp.mul RNE b108 b108)))
(let ((.def_11 (fp.neg .def_10)))
(let ((.def_12 (fp.mul RNE b108 .def_11)))
(let ((.def_13 ((_ to_fp 11 53) RNE .def_12)))
(let ((.def_15 (fp.div RNE .def_13 b127)))
(let ((.def_16 ((_ to_fp 8 24) RNE .def_15)))
(let ((.def_291 (fp.neg .def_16)))
(let ((.def_292 (= b641 .def_291)))
(let ((.def_288 (fp.leq b110 .def_16)))
(let ((.def_289 (not .def_288)))
(let ((.def_20 (fp.mul RNE .def_11 .def_16)))
(let ((.def_21 ((_ to_fp 11 53) RNE .def_20)))
(let ((.def_23 (fp.div RNE .def_21 b149)))
(let ((.def_24 ((_ to_fp 8 24) RNE .def_23)))
(let ((.def_284 (fp.neg .def_24)))
(let ((.def_285 (= b636 .def_284)))
(let ((.def_281 (fp.leq b110 .def_24)))
(let ((.def_282 (not .def_281)))
(let ((.def_28 (fp.mul RNE .def_11 .def_24)))
(let ((.def_29 ((_ to_fp 11 53) RNE .def_28)))
(let ((.def_31 (fp.div RNE .def_29 b165)))
(let ((.def_32 ((_ to_fp 8 24) RNE .def_31)))
(let ((.def_277 (fp.neg .def_32)))
(let ((.def_278 (= b631 .def_277)))
(let ((.def_274 (fp.leq b110 .def_32)))
(let ((.def_275 (not .def_274)))
(let ((.def_36 (fp.mul RNE .def_11 .def_32)))
(let ((.def_37 ((_ to_fp 11 53) RNE .def_36)))
(let ((.def_39 (fp.div RNE .def_37 b182)))
(let ((.def_40 ((_ to_fp 8 24) RNE .def_39)))
(let ((.def_270 (fp.neg .def_40)))
(let ((.def_271 (= b626 .def_270)))
(let ((.def_267 (fp.leq b110 .def_40)))
(let ((.def_268 (not .def_267)))
(let ((.def_44 (fp.mul RNE .def_11 .def_40)))
(let ((.def_45 ((_ to_fp 11 53) RNE .def_44)))
(let ((.def_47 (fp.div RNE .def_45 b199)))
(let ((.def_48 ((_ to_fp 8 24) RNE .def_47)))
(let ((.def_263 (fp.neg .def_48)))
(let ((.def_264 (= b621 .def_263)))
(let ((.def_260 (fp.leq b110 .def_48)))
(let ((.def_261 (not .def_260)))
(let ((.def_52 (fp.mul RNE .def_11 .def_48)))
(let ((.def_53 ((_ to_fp 11 53) RNE .def_52)))
(let ((.def_55 (fp.div RNE .def_53 b216)))
(let ((.def_56 ((_ to_fp 8 24) RNE .def_55)))
(let ((.def_256 (fp.neg .def_56)))
(let ((.def_257 (= b616 .def_256)))
(let ((.def_253 (fp.leq b110 .def_56)))
(let ((.def_254 (not .def_253)))
(let ((.def_60 (fp.mul RNE .def_11 .def_56)))
(let ((.def_61 ((_ to_fp 11 53) RNE .def_60)))
(let ((.def_63 (fp.div RNE .def_61 b233)))
(let ((.def_64 ((_ to_fp 8 24) RNE .def_63)))
(let ((.def_249 (fp.neg .def_64)))
(let ((.def_250 (= b611 .def_249)))
(let ((.def_246 (fp.leq b110 .def_64)))
(let ((.def_247 (not .def_246)))
(let ((.def_68 (fp.mul RNE .def_11 .def_64)))
(let ((.def_69 ((_ to_fp 11 53) RNE .def_68)))
(let ((.def_71 (fp.div RNE .def_69 b250)))
(let ((.def_72 ((_ to_fp 8 24) RNE .def_71)))
(let ((.def_242 (fp.neg .def_72)))
(let ((.def_243 (= b606 .def_242)))
(let ((.def_239 (fp.leq b110 .def_72)))
(let ((.def_240 (not .def_239)))
(let ((.def_76 (fp.mul RNE .def_11 .def_72)))
(let ((.def_77 ((_ to_fp 11 53) RNE .def_76)))
(let ((.def_79 (fp.div RNE .def_77 b267)))
(let ((.def_80 ((_ to_fp 8 24) RNE .def_79)))
(let ((.def_235 (fp.neg .def_80)))
(let ((.def_236 (= b601 .def_235)))
(let ((.def_232 (fp.leq b110 .def_80)))
(let ((.def_233 (not .def_232)))
(let ((.def_84 (fp.mul RNE .def_11 .def_80)))
(let ((.def_85 ((_ to_fp 11 53) RNE .def_84)))
(let ((.def_87 (fp.div RNE .def_85 b283)))
(let ((.def_88 ((_ to_fp 8 24) RNE .def_87)))
(let ((.def_228 (fp.neg .def_88)))
(let ((.def_229 (= b596 .def_228)))
(let ((.def_225 (fp.leq b110 .def_88)))
(let ((.def_226 (not .def_225)))
(let ((.def_117 (fp.add RNE b108 .def_16)))
(let ((.def_222 (= b545 .def_117)))
(let ((.def_218 ((_ to_fp 11 53) RNE b641)))
(let ((.def_219 (fp.leq b140 .def_218)))
(let ((.def_220 (not .def_219)))
(let ((.def_118 (fp.add RNE .def_24 .def_117)))
(let ((.def_215 (= b587 .def_118)))
(let ((.def_211 ((_ to_fp 11 53) RNE b636)))
(let ((.def_212 (fp.leq b140 .def_211)))
(let ((.def_213 (not .def_212)))
(let ((.def_119 (fp.add RNE .def_32 .def_118)))
(let ((.def_208 (= b582 .def_119)))
(let ((.def_204 ((_ to_fp 11 53) RNE b631)))
(let ((.def_205 (fp.leq b140 .def_204)))
(let ((.def_206 (not .def_205)))
(let ((.def_120 (fp.add RNE .def_40 .def_119)))
(let ((.def_201 (= b577 .def_120)))
(let ((.def_197 ((_ to_fp 11 53) RNE b626)))
(let ((.def_198 (fp.leq b140 .def_197)))
(let ((.def_199 (not .def_198)))
(let ((.def_121 (fp.add RNE .def_48 .def_120)))
(let ((.def_194 (= b572 .def_121)))
(let ((.def_190 ((_ to_fp 11 53) RNE b621)))
(let ((.def_191 (fp.leq b140 .def_190)))
(let ((.def_192 (not .def_191)))
(let ((.def_122 (fp.add RNE .def_56 .def_121)))
(let ((.def_187 (= b567 .def_122)))
(let ((.def_183 ((_ to_fp 11 53) RNE b616)))
(let ((.def_184 (fp.leq b140 .def_183)))
(let ((.def_185 (not .def_184)))
(let ((.def_123 (fp.add RNE .def_64 .def_122)))
(let ((.def_180 (= b562 .def_123)))
(let ((.def_176 ((_ to_fp 11 53) RNE b611)))
(let ((.def_177 (fp.leq b140 .def_176)))
(let ((.def_178 (not .def_177)))
(let ((.def_124 (fp.add RNE .def_72 .def_123)))
(let ((.def_173 (= b557 .def_124)))
(let ((.def_169 ((_ to_fp 11 53) RNE b606)))
(let ((.def_170 (fp.leq b140 .def_169)))
(let ((.def_171 (not .def_170)))
(let ((.def_166 (fp.leq b108 b376)))
(let ((.def_164 (fp.leq b373 b108)))
(let ((.def_161 (fp.leq b540 b376)))
(let ((.def_157 (fp.leq b547 b117)))
(let ((.def_158 (not .def_157)))
(let ((.def_125 (fp.add RNE .def_80 .def_124)))
(let ((.def_154 (= b552 .def_125)))
(let ((.def_149 ((_ to_fp 11 53) RNE b601)))
(let ((.def_151 (fp.leq b140 .def_149)))
(let ((.def_152 (not .def_151)))
(let ((.def_145 (fp.neg b545)))
(let ((.def_146 (= b547 .def_145)))
(let ((.def_142 (fp.leq b110 b545)))
(let ((.def_143 (not .def_142)))
(let ((.def_138 (fp.neg b108)))
(let ((.def_139 (= b540 .def_138)))
(let ((.def_136 (fp.leq b110 b108)))
(let ((.def_137 (not .def_136)))
(let ((.def_140 (and .def_137 .def_139)))
(let ((.def_133 (= b108 b540)))
(let ((.def_134 (not .def_133)))
(let ((.def_141 (and .def_134 .def_140)))
(let ((.def_144 (and .def_141 .def_143)))
(let ((.def_147 (and .def_144 .def_146)))
(let ((.def_130 (= b545 b547)))
(let ((.def_131 (not .def_130)))
(let ((.def_148 (and .def_131 .def_147)))
(let ((.def_153 (and .def_148 .def_152)))
(let ((.def_155 (and .def_153 .def_154)))
(let ((.def_159 (and .def_155 .def_158)))
(let ((.def_162 (and .def_159 .def_161)))
(let ((.def_165 (and .def_162 .def_164)))
(let ((.def_167 (and .def_165 .def_166)))
(let ((.def_126 (fp.add RNE .def_88 .def_125)))
(let ((.def_127 (= b552 .def_126)))
(let ((.def_128 (not .def_127)))
(let ((.def_168 (and .def_128 .def_167)))
(let ((.def_172 (and .def_168 .def_171)))
(let ((.def_174 (and .def_172 .def_173)))
(let ((.def_115 (= b557 b552)))
(let ((.def_116 (not .def_115)))
(let ((.def_175 (and .def_116 .def_174)))
(let ((.def_179 (and .def_175 .def_178)))
(let ((.def_181 (and .def_179 .def_180)))
(let ((.def_112 (= b562 b557)))
(let ((.def_113 (not .def_112)))
(let ((.def_182 (and .def_113 .def_181)))
(let ((.def_186 (and .def_182 .def_185)))
(let ((.def_188 (and .def_186 .def_187)))
(let ((.def_109 (= b567 b562)))
(let ((.def_110 (not .def_109)))
(let ((.def_189 (and .def_110 .def_188)))
(let ((.def_193 (and .def_189 .def_192)))
(let ((.def_195 (and .def_193 .def_194)))
(let ((.def_106 (= b572 b567)))
(let ((.def_107 (not .def_106)))
(let ((.def_196 (and .def_107 .def_195)))
(let ((.def_200 (and .def_196 .def_199)))
(let ((.def_202 (and .def_200 .def_201)))
(let ((.def_103 (= b577 b572)))
(let ((.def_104 (not .def_103)))
(let ((.def_203 (and .def_104 .def_202)))
(let ((.def_207 (and .def_203 .def_206)))
(let ((.def_209 (and .def_207 .def_208)))
(let ((.def_100 (= b582 b577)))
(let ((.def_101 (not .def_100)))
(let ((.def_210 (and .def_101 .def_209)))
(let ((.def_214 (and .def_210 .def_213)))
(let ((.def_216 (and .def_214 .def_215)))
(let ((.def_97 (= b587 b582)))
(let ((.def_98 (not .def_97)))
(let ((.def_217 (and .def_98 .def_216)))
(let ((.def_221 (and .def_217 .def_220)))
(let ((.def_223 (and .def_221 .def_222)))
(let ((.def_94 (= b545 b587)))
(let ((.def_95 (not .def_94)))
(let ((.def_224 (and .def_95 .def_223)))
(let ((.def_227 (and .def_224 .def_226)))
(let ((.def_230 (and .def_227 .def_229)))
(let ((.def_90 (= .def_88 b596)))
(let ((.def_91 (not .def_90)))
(let ((.def_231 (and .def_91 .def_230)))
(let ((.def_234 (and .def_231 .def_233)))
(let ((.def_237 (and .def_234 .def_236)))
(let ((.def_82 (= .def_80 b601)))
(let ((.def_83 (not .def_82)))
(let ((.def_238 (and .def_83 .def_237)))
(let ((.def_241 (and .def_238 .def_240)))
(let ((.def_244 (and .def_241 .def_243)))
(let ((.def_74 (= .def_72 b606)))
(let ((.def_75 (not .def_74)))
(let ((.def_245 (and .def_75 .def_244)))
(let ((.def_248 (and .def_245 .def_247)))
(let ((.def_251 (and .def_248 .def_250)))
(let ((.def_66 (= .def_64 b611)))
(let ((.def_67 (not .def_66)))
(let ((.def_252 (and .def_67 .def_251)))
(let ((.def_255 (and .def_252 .def_254)))
(let ((.def_258 (and .def_255 .def_257)))
(let ((.def_58 (= .def_56 b616)))
(let ((.def_59 (not .def_58)))
(let ((.def_259 (and .def_59 .def_258)))
(let ((.def_262 (and .def_259 .def_261)))
(let ((.def_265 (and .def_262 .def_264)))
(let ((.def_50 (= .def_48 b621)))
(let ((.def_51 (not .def_50)))
(let ((.def_266 (and .def_51 .def_265)))
(let ((.def_269 (and .def_266 .def_268)))
(let ((.def_272 (and .def_269 .def_271)))
(let ((.def_42 (= .def_40 b626)))
(let ((.def_43 (not .def_42)))
(let ((.def_273 (and .def_43 .def_272)))
(let ((.def_276 (and .def_273 .def_275)))
(let ((.def_279 (and .def_276 .def_278)))
(let ((.def_34 (= .def_32 b631)))
(let ((.def_35 (not .def_34)))
(let ((.def_280 (and .def_35 .def_279)))
(let ((.def_283 (and .def_280 .def_282)))
(let ((.def_286 (and .def_283 .def_285)))
(let ((.def_26 (= .def_24 b636)))
(let ((.def_27 (not .def_26)))
(let ((.def_287 (and .def_27 .def_286)))
(let ((.def_290 (and .def_287 .def_289)))
(let ((.def_293 (and .def_290 .def_292)))
(let ((.def_297 (and .def_293 .def_296)))
(let ((.def_18 (= .def_16 b641)))
(let ((.def_19 (not .def_18)))
(let ((.def_298 (and .def_19 .def_297)))
.def_298))))))))))))))))))))))))))))))))))))))))))))))))))))))))))))))))))))))))))))))))))))))))))))))))))))))))))))))))))))))))))))))))))))))))))))))))))))))))))))))))))))))))))))))))))))))))))))))))))))))))))))))))))))))))))))))))))))))))))))))))))))))))))))))
(check-sat)
